<?xml version = "1.0" encoding="UTF-8" standalone="yes"?>
<CPLEXSolution version="1.2">
 <header
   problemName="1_gamma__E_4_2_2"
   solutionName="incumbent"
   solutionIndex="-1"
   objectiveValue="4"
   solutionTypeValue="3"
   solutionTypeString="primal"
   solutionStatusValue="101"
   solutionStatusString="integer optimal solution"
   solutionMethodString="mip"
   primalFeasible="1"
   dualFeasible="1"
   MIPNodes="0"
   MIPIterations="20"
   writeLevel="1"/>
 <quality
   epInt="1.0000000000000001e-05"
   epRHS="9.9999999999999995e-07"
   maxIntInfeas="0"
   maxPrimalInfeas="0"
   maxX="4"
   maxSlack="0"/>
 <linearConstraints>
  <constraint name="R_def" index="0" slack="0"/>
  <constraint name="val_cible" index="1" slack="0"/>
  <constraint name="BkI_3_0" index="2" slack="0"/>
  <constraint name="BkI_3_1" index="3" slack="0"/>
  <constraint name="BkI_3_2" index="4" slack="0"/>
  <constraint name="BkI_3_3" index="5" slack="0"/>
  <constraint name="BkI_5_0" index="6" slack="0"/>
  <constraint name="BkI_5_1" index="7" slack="0"/>
  <constraint name="BkI_5_2" index="8" slack="0"/>
  <constraint name="BkI_5_3" index="9" slack="0"/>
  <constraint name="BkI_6_0" index="10" slack="0"/>
  <constraint name="BkI_6_1" index="11" slack="0"/>
  <constraint name="BkI_6_2" index="12" slack="0"/>
  <constraint name="BkI_6_3" index="13" slack="0"/>
  <constraint name="BkI_9_0" index="14" slack="0"/>
  <constraint name="BkI_9_1" index="15" slack="0"/>
  <constraint name="BkI_9_2" index="16" slack="0"/>
  <constraint name="BkI_9_3" index="17" slack="0"/>
  <constraint name="BkI_10_0" index="18" slack="0"/>
  <constraint name="BkI_10_1" index="19" slack="0"/>
  <constraint name="BkI_10_2" index="20" slack="0"/>
  <constraint name="BkI_10_3" index="21" slack="0"/>
  <constraint name="BkI_12_0" index="22" slack="0"/>
  <constraint name="BkI_12_1" index="23" slack="0"/>
  <constraint name="BkI_12_2" index="24" slack="0"/>
  <constraint name="BkI_12_3" index="25" slack="0"/>
 </linearConstraints>
 <variables>
  <variable name="R" index="0" value="4"/>
  <variable name="Q0123" index="1" value="1"/>
  <variable name="Q0000" index="2" value="1"/>
  <variable name="P0000" index="3" value="-0"/>
  <variable name="Q0001" index="4" value="-0"/>
  <variable name="P0001" index="5" value="-0"/>
  <variable name="Q0002" index="6" value="-0"/>
  <variable name="P0002" index="7" value="-0"/>
  <variable name="Q0003" index="8" value="-0"/>
  <variable name="P0003" index="9" value="-0"/>
  <variable name="Q0010" index="10" value="-0"/>
  <variable name="P0010" index="11" value="-0"/>
  <variable name="Q0011" index="12" value="-0"/>
  <variable name="P0011" index="13" value="1"/>
  <variable name="Q0012" index="14" value="-0"/>
  <variable name="Q0013" index="15" value="-0"/>
  <variable name="Q0020" index="16" value="-0"/>
  <variable name="P0020" index="17" value="-0"/>
  <variable name="Q0021" index="18" value="0"/>
  <variable name="Q0022" index="19" value="-0"/>
  <variable name="P0022" index="20" value="0"/>
  <variable name="Q0023" index="21" value="-0"/>
  <variable name="Q0030" index="22" value="-0"/>
  <variable name="P0030" index="23" value="-0"/>
  <variable name="Q0031" index="24" value="1"/>
  <variable name="Q0032" index="25" value="0"/>
  <variable name="Q0033" index="26" value="-0"/>
  <variable name="P0033" index="27" value="1"/>
  <variable name="Q0100" index="28" value="-0"/>
  <variable name="P0100" index="29" value="0"/>
  <variable name="Q0101" index="30" value="-0"/>
  <variable name="P0101" index="31" value="1"/>
  <variable name="Q0102" index="32" value="-0"/>
  <variable name="Q0103" index="33" value="-0"/>
  <variable name="Q0110" index="34" value="-0"/>
  <variable name="P0110" index="35" value="-0"/>
  <variable name="Q0111" index="36" value="-0"/>
  <variable name="P0111" index="37" value="-0"/>
  <variable name="Q0112" index="38" value="-0"/>
  <variable name="Q0113" index="39" value="-0"/>
  <variable name="Q0120" index="40" value="-0"/>
  <variable name="Q0121" index="41" value="-0"/>
  <variable name="Q0122" index="42" value="-0"/>
  <variable name="Q0130" index="43" value="-0"/>
  <variable name="Q0131" index="44" value="-0"/>
  <variable name="Q0133" index="45" value="-0"/>
  <variable name="Q0200" index="46" value="-0"/>
  <variable name="P0200" index="47" value="-0"/>
  <variable name="Q0201" index="48" value="-0"/>
  <variable name="Q0202" index="49" value="0"/>
  <variable name="P0202" index="50" value="-0"/>
  <variable name="Q0203" index="51" value="-0"/>
  <variable name="Q0210" index="52" value="-0"/>
  <variable name="Q0211" index="53" value="1"/>
  <variable name="Q0212" index="54" value="-0"/>
  <variable name="Q0220" index="55" value="-0"/>
  <variable name="P0220" index="56" value="1"/>
  <variable name="Q0221" index="57" value="0"/>
  <variable name="Q0222" index="58" value="-0"/>
  <variable name="P0222" index="59" value="-0"/>
  <variable name="Q0223" index="60" value="-0"/>
  <variable name="Q0230" index="61" value="-0"/>
  <variable name="Q0232" index="62" value="-0"/>
  <variable name="Q0233" index="63" value="-0"/>
  <variable name="Q0300" index="64" value="-0"/>
  <variable name="P0300" index="65" value="0"/>
  <variable name="Q0301" index="66" value="-0"/>
  <variable name="Q0302" index="67" value="-0"/>
  <variable name="Q0303" index="68" value="-0"/>
  <variable name="P0303" index="69" value="0"/>
  <variable name="Q0310" index="70" value="-0"/>
  <variable name="Q0311" index="71" value="0"/>
  <variable name="Q0313" index="72" value="-0"/>
  <variable name="Q0320" index="73" value="-0"/>
  <variable name="Q0322" index="74" value="-0"/>
  <variable name="Q0323" index="75" value="-0"/>
  <variable name="Q0330" index="76" value="-0"/>
  <variable name="P0330" index="77" value="-0"/>
  <variable name="Q0331" index="78" value="-0"/>
  <variable name="Q0332" index="79" value="0"/>
  <variable name="Q0333" index="80" value="-0"/>
  <variable name="P0333" index="81" value="-0"/>
 </variables>
 <objectiveValues>
  <objective index="0" name="" value="4"/>
 </objectiveValues>
</CPLEXSolution>
